Set parameter Username
Set parameter Threads to value 1
Academic license - for non-commercial use only - expires 2022-07-11
Set parameter TimeLimit to value 300
Gurobi Optimizer version 9.5.1 build v9.5.1rc2 (linux64)
Thread count: 2 physical cores, 4 logical processors, using up to 1 threads
Optimize a model with 1003 rows, 902 columns and 4274 nonzeros
Model fingerprint: 0x91bea16e
Variable types: 40 continuous, 862 integer (862 binary)
Coefficient statistics:
  Matrix range     [1e-01, 4e+02]
  Objective range  [3e-02, 4e-01]
  Bounds range     [1e+00, 1e+00]
  RHS range        [1e+00, 1e+03]
Presolve removed 271 rows and 82 columns
Presolve time: 0.04s
Presolved: 732 rows, 820 columns, 3619 nonzeros
Variable types: 39 continuous, 781 integer (781 binary)
Found heuristic solution: objective 3.8393284

Root relaxation: objective 2.310156e+00, 964 iterations, 0.02 seconds (0.02 work units)

    Nodes    |    Current Node    |     Objective Bounds      |     Work
 Expl Unexpl |  Obj  Depth IntInf | Incumbent    BestBd   Gap | It/Node Time

     0     0    2.31016    0   93    3.83933    2.31016  39.8%     -    0s
H    0     0                       3.5992897    2.31016  35.8%     -    0s
H    0     0                       3.5506875    2.31016  34.9%     -    0s
     0     0    2.43694    0   95    3.55069    2.43694  31.4%     -    0s
H    0     0                       3.2825240    2.43694  25.8%     -    0s
     0     0    2.43939    0   82    3.28252    2.43939  25.7%     -    0s
     0     0    2.52088    0  128    3.28252    2.52088  23.2%     -    0s
     0     0    2.53415    0  132    3.28252    2.53415  22.8%     -    0s
     0     0    2.57971    0  134    3.28252    2.57971  21.4%     -    0s
     0     0    2.59569    0  113    3.28252    2.59569  20.9%     -    0s
     0     0    2.60229    0  108    3.28252    2.60229  20.7%     -    0s
     0     0    2.60316    0  110    3.28252    2.60316  20.7%     -    0s
     0     0    2.60321    0  110    3.28252    2.60321  20.7%     -    0s
     0     0    2.62941    0  125    3.28252    2.62941  19.9%     -    0s
H    0     0                       3.2706452    2.62941  19.6%     -    0s
     0     0    2.63876    0  105    3.27065    2.63876  19.3%     -    0s
     0     0    2.64272    0  120    3.27065    2.64272  19.2%     -    0s
     0     0    2.64414    0  107    3.27065    2.64414  19.2%     -    0s
     0     0    2.64440    0  108    3.27065    2.64440  19.1%     -    0s
     0     0    2.64445    0  102    3.27065    2.64445  19.1%     -    0s
     0     0    2.65460    0  111    3.27065    2.65460  18.8%     -    0s
H    0     0                       3.2665964    2.65460  18.7%     -    0s
H    0     0                       3.0959375    2.65460  14.3%     -    0s
     0     0    2.65599    0  111    3.09594    2.65599  14.2%     -    0s
     0     0    2.65628    0  135    3.09594    2.65628  14.2%     -    0s
     0     0    2.65722    0  125    3.09594    2.65722  14.2%     -    0s
     0     0    2.65725    0  111    3.09594    2.65725  14.2%     -    0s
     0     0    2.66464    0  112    3.09594    2.66464  13.9%     -    0s
     0     0    2.66582    0  145    3.09594    2.66582  13.9%     -    0s
     0     0    2.66613    0  149    3.09594    2.66613  13.9%     -    0s
     0     0    2.66621    0  134    3.09594    2.66621  13.9%     -    0s
     0     0    2.66754    0  117    3.09594    2.66754  13.8%     -    0s
     0     0    2.66800    0  111    3.09594    2.66800  13.8%     -    0s
     0     0    2.66805    0  135    3.09594    2.66805  13.8%     -    0s
     0     0    2.67005    0  114    3.09594    2.67005  13.8%     -    0s
     0     0    2.67169    0  128    3.09594    2.67169  13.7%     -    0s
     0     0    2.67261    0  136    3.09594    2.67261  13.7%     -    0s
     0     0    2.67289    0  141    3.09594    2.67289  13.7%     -    0s
     0     0    2.67291    0  151    3.09594    2.67291  13.7%     -    0s
     0     0    2.67624    0  135    3.09594    2.67624  13.6%     -    0s
     0     0    2.67660    0  141    3.09594    2.67660  13.5%     -    0s
     0     0    2.67696    0  128    3.09594    2.67696  13.5%     -    0s
     0     0    2.67721    0  124    3.09594    2.67721  13.5%     -    0s
     0     0    2.67734    0  116    3.09594    2.67734  13.5%     -    0s
     0     0    2.67997    0  126    3.09594    2.67997  13.4%     -    0s
     0     0    2.68054    0  122    3.09594    2.68054  13.4%     -    0s
     0     0    2.68064    0  131    3.09594    2.68064  13.4%     -    0s
     0     0    2.68216    0  130    3.09594    2.68216  13.4%     -    0s
     0     0    2.68216    0  130    3.09594    2.68216  13.4%     -    0s
     0     2    2.68298    0  130    3.09594    2.68298  13.3%     -    0s
H   32    32                       3.0079112    2.68974  10.6%   100    1s
H   52    52                       2.9986769    2.68974  10.3%  85.5    1s
H   54    53                       2.9745599    2.68974  9.58%  82.5    1s
H   78    74                       2.9708605    2.68974  9.46%  65.3    1s
H  213   165                       2.9613845    2.70430  8.68%  50.8    1s
H  435   129                       2.8781270    2.73972  4.81%  43.1    2s
H  567   160                       2.8425678    2.75104  3.22%  50.7    4s
   670   130    2.82669   34   69    2.84257    2.81365  1.02%  51.6    5s

Cutting planes:
  Cover: 9
  Clique: 1
  MIR: 77
  StrongCG: 2
  Flow cover: 70
  Zero half: 1
  RLT: 3
  Relax-and-lift: 45

Explored 706 nodes (39525 simplex iterations) in 5.08 seconds (3.74 work units)
Thread count was 1 (of 4 available processors)

Solution count 10: 2.84257 2.87813 2.96138 ... 3.27065

Optimal solution found (tolerance 1.00e-04)
Best objective 2.842567805562e+00, best bound 2.842567805562e+00, gap 0.0000%
